examples/dynamic/debug1/MulliganEconomicsModel0061c.smt2
(set-info :smt-lib-version 2.6)
(set-logic QF_NRA)
(set-info :source |
Generated by: Casey Mulligan, Russell Bradford, James H. Davenport, Matthew England, and ZakTonks
Generated on: 2018-04-19
Generator: TheoryGuru
Application: Industry Equilibrium: Prices and factor costs, counterexample set
Target solver: Z3
|)
(set-info :license "https://creativecommons.org/licenses/by/4.0/")
(set-info :category "industrial")
(set-info :status unsat)

; Code written by TheoryGuru
; Mulligan model #0061
;   is part of the example library included in "Quantifier Elimination for Reasoning in Economics" April 2018
;   by Mulligan, Bradford, Davenport, England, and Tonks
;   available at bathpaper.economicreasoning.com .
; Economics background for this and other examples is provided at examples.economicreasoning.com .

(declare-fun v1 () Real)
(declare-fun v2 () Real)
(declare-fun v3 () Real)
(declare-fun v4 () Real)
(declare-fun v5 () Real)
(declare-fun v6 () Real)
(declare-fun v7 () Real)
(declare-fun v8 () Real)
(declare-fun v9 () Real)
(declare-fun v10 () Real)
(declare-fun v11 () Real)
(declare-fun v12 () Real)
(declare-fun v13 () Real)
(declare-fun v14 () Real)
(declare-fun v15 () Real)
(declare-fun v16 () Real)

; input assumptions
(define-fun assumptions () Bool (and 
(= (+ (* v2 v7) (* v16 v4 v8)) (* v12 v7 v8))
(= (* v16 v8) v1)
(= (+ (* v12 v15 v7) (* v14 v16 v7)) (+ (* v15 v16 v4) (* v13 v7)))
(= (* v3 v6 v8) (* v2 v7))
(= (* v3 v5 v8) (* v1 v4))
(= (* v3 v9) v13)
(= (* v11 v7) v15)
(= (* v10 v4) v14)
(> v8 0)
(> v2 0)
(> v1 0)
(> v3 0)
(> v4 0)
))

; input hypothesis
(define-fun hypothesis () Bool
(= v9 (+ (* v10 v5) (* v11 v6)))
)

(assert assumptions)
(assert (not hypothesis))

(check-sat) ; checking the existence of a counterexample to assumptions => hypothesis

(exit)