z3_origin/MulliganEconomicsModel0061c.txt
unsat
(:max-memory          18.53
 :memory              18.42
 :nlsat-arith-var     15
 :nlsat-atoms         64
 :nlsat-bool-var      1
 :nlsat-clauses       33
 :nlsat-conflicts     19
 :nlsat-propagations  47
 :nlsat-stages        25
 :num-allocs          59407
 :rlimit-count        4714
 :solve-eqs-elim-vars 11
 :solve-eqs-steps     46
 :time                0.01
 :total-time          0.02)
